c FILE /home/rafael/Documents/HappySet/MIHS/inputs/happygen/output/graph_d_regular_k3_p0.1_v100_20241127_084009.txt
c SOURCE This is a d-regular graph formed for the happy graph colouring problem.
c DESCRIPTION It was generated using the problem generator of Rhyd Lewis
c
c GRAPH STATS
c Seed                             = -123909697
c Number of Nodes                  = 100
c Number of colours k              = 3
c Number of pre-assignments        = 10
c Degree of all vertices           = 6
c Density                          = 0.0606061
c 
c The degrees of nodes 1 to 100, respectively, are as follows 
c [6, 6, 6, 6, 6, 6, 6, 6, 6, 6, 6, 6, 6, 6, 6, 6, 6, 6, 6, 6, 6, 6, 6, 6, 6, 6, 
c  6, 6, 6, 6, 6, 6, 6, 6, 6, 6, 6, 6, 6, 6, 6, 6, 6, 6, 6, 6, 6, 6, 6, 6, 6, 
c  6, 6, 6, 6, 6, 6, 6, 6, 6, 6, 6, 6, 6, 6, 6, 6, 6, 6, 6, 6, 6, 6, 6, 6, 6, 
c  6, 6, 6, 6, 6, 6, 6, 6, 6, 6, 6, 6, 6, 6, 6, 6, 6, 6, 6, 6, 6, 6, 6, 6] 
c  
p edge 100 300 3
e 1 13
e 1 14
e 1 34
e 1 70
e 1 75
e 1 88
e 2 22
e 2 24
e 2 55
e 2 66
e 2 90
e 2 100
e 3 5
e 3 46
e 3 56
e 3 57
e 3 72
e 3 89
e 4 6
e 4 15
e 4 27
e 4 61
e 4 92
e 4 96
e 5 15
e 5 28
e 5 30
e 5 42
e 5 90
e 6 17
e 6 18
e 6 19
e 6 77
e 6 97
e 7 13
e 7 32
e 7 36
e 7 43
e 7 69
e 7 72
e 8 13
e 8 65
e 8 68
e 8 69
e 8 79
e 8 87
e 9 49
e 9 50
e 9 58
e 9 74
e 9 77
e 9 85
e 10 43
e 10 56
e 10 65
e 10 75
e 10 78
e 10 92
e 11 15
e 11 18
e 11 20
e 11 22
e 11 78
e 11 83
e 12 23
e 12 31
e 12 70
e 12 86
e 12 90
e 12 95
e 13 20
e 13 42
e 13 76
e 14 19
e 14 23
e 14 57
e 14 66
e 14 92
e 15 73
e 15 75
e 15 82
e 16 31
e 16 47
e 16 63
e 16 72
e 16 80
e 16 82
e 17 38
e 17 44
e 17 56
e 17 59
e 17 77
e 18 35
e 18 50
e 18 52
e 18 64
e 19 27
e 19 35
e 19 45
e 19 99
e 20 67
e 20 69
e 20 78
e 20 80
e 21 30
e 21 52
e 21 64
e 21 71
e 21 84
e 21 91
e 22 31
e 22 66
e 22 77
e 22 100
e 23 65
e 23 66
e 23 79
e 23 81
e 24 37
e 24 45
e 24 52
e 24 64
e 24 99
e 25 32
e 25 64
e 25 67
e 25 73
e 25 78
e 25 95
e 26 36
e 26 42
e 26 55
e 26 61
e 26 63
e 26 72
e 27 41
e 27 50
e 27 53
e 27 95
e 28 32
e 28 60
e 28 83
e 28 87
e 28 91
e 29 38
e 29 39
e 29 72
e 29 82
e 29 86
e 29 99
e 30 33
e 30 55
e 30 73
e 30 94
e 31 50
e 31 85
e 31 94
e 32 74
e 32 88
e 32 99
e 33 36
e 33 54
e 33 67
e 33 77
e 33 99
e 34 37
e 34 54
e 34 79
e 34 95
e 34 97
e 35 42
e 35 45
e 35 77
e 35 79
e 36 45
e 36 51
e 36 98
e 37 49
e 37 51
e 37 54
e 37 95
e 38 41
e 38 84
e 38 90
e 38 93
e 39 43
e 39 58
e 39 64
e 39 83
e 39 89
e 40 47
e 40 59
e 40 60
e 40 70
e 40 75
e 40 85
e 41 52
e 41 76
e 41 96
e 41 100
e 42 71
e 42 78
e 43 49
e 43 57
e 43 80
e 44 52
e 44 63
e 44 84
e 44 94
e 44 96
e 45 68
e 45 70
e 46 51
e 46 73
e 46 84
e 46 86
e 46 91
e 47 48
e 47 54
e 47 65
e 47 94
e 48 60
e 48 61
e 48 71
e 48 91
e 48 100
e 49 51
e 49 68
e 49 84
e 50 60
e 50 91
e 51 59
e 51 93
e 52 92
e 53 58
e 53 67
e 53 81
e 53 85
e 53 87
e 54 71
e 54 80
e 55 62
e 55 65
e 55 97
e 56 75
e 56 88
e 56 98
e 57 59
e 57 76
e 57 89
e 58 62
e 58 76
e 58 82
e 59 87
e 59 100
e 60 88
e 60 91
e 61 81
e 61 93
e 61 98
e 62 73
e 62 83
e 62 94
e 62 97
e 63 70
e 63 74
e 63 88
e 64 73
e 65 97
e 66 76
e 66 94
e 67 68
e 67 87
e 68 82
e 68 96
e 69 74
e 69 76
e 69 95
e 70 80
e 71 84
e 71 89
e 72 81
e 74 79
e 74 96
e 75 99
e 78 88
e 79 80
e 81 90
e 81 96
e 82 83
e 83 98
e 85 89
e 85 100
e 86 89
e 86 92
e 86 93
e 87 93
e 90 93
e 92 98
e 97 98
n 5 1
n 13 1
n 16 1
n 49 3
n 59 3
n 65 3
n 66 2
n 73 1
n 83 2
n 99 3
